10
0 83 77 16 51 83 49 72 32 42 
100 0 80 53 84 73 21 62 67 91 
21 36 0 57 6 57 87 63 86 54 
39 69 51 0 85 80 30 6 23 18 
38 35 68 47 0 27 63 72 19 32 
89 55 95 25 87 0 77 29 38 26 
38 71 98 90 11 72 0 52 55 66 
70 47 84 98 14 39 40 0 29 34 
38 99 64 25 52 77 68 36 0 47 
70 5 7 50 49 20 50 67 38 0 
